2145489304276994111506,11,1,2,03,12,1,2,04,11,1,2,07,6,1,2,01,4,1,2,08,7,1,2,06,15,1,2,07,2,1,2,01,7,1,2,06,1,1,2,011,12,1,2,012,5,1,2,04,12,1,2,06,10,1,2,011,13,1,2,06,12,1,2,04,12,1,2,06,3,1,2,012,6,1,2,013,8,1,2,015,11,1,2,03,14,1,2,012,10,1,2,010,10,1,2,02,15,1,2,07,8,1,2,011,7,1,2,08,14,1,2,09,9,1,2,02,8,1,2,06,15,1,2,06,6,1,2,011,6,1,2,06,5,1,2,07,12,1,2,011,9,1,2,03,6,1,2,02,9,1,2,010,14,1,2,08,14,1,2,014,15,1,2,01,3,1,2,013,2,1,2,01,13,1,2,02,13,1,2,014,4,1,2,011,2,1,2,012,9,1,2,011,11,1,2,011,6,1,2,0